testLift.ilp
\ Model _copy
\ LP format - for model browsing. Use MPS format to capture full model detail.
Minimize
 
Subject To
 R0: 2 C2 + C3 + C4 + C5 = 0.25
 R2: C0 + C1 + 2 C3 + C4 = 0.375
 R4: C0 + C1 + 2 C2 + C4 >= 1
 R5: C0 + C1 + C4 + 2 C5 >= 1
 R6: C1 - C2 + C4 - C5 = 0
Bounds
 C0 free
 -infinity <= C1 <= 1
 C2 free
 C4 free
 C5 free
End
