testLift.sol
# Objective value = 0
x_5 0
x_8 0
x_0 0.5
x_1 0.5
x_2 0.5
x_3 0
x_6 0
x_4 1
x_7 0.5
